DIMACS_lns/graph-1000-38.col
p edge 1000 1827
e 1 31
e 1 992
e 1 493
e 1 152
e 1 39
e 1 482
e 2 632
e 2 254
e 2 895
e 2 277
e 2 557
e 2 129
e 3 220
e 3 546
e 3 401
e 4 430
e 4 884
e 4 797
e 4 479
e 4 701
e 4 245
e 5 344
e 5 54
e 5 341
e 5 807
e 7 661
e 7 904
e 7 627
e 7 429
e 8 144
e 8 431
e 8 142
e 8 708
e 8 861
e 9 957
e 9 167
e 9 583
e 9 142
e 9 77
e 9 316
e 10 597
e 10 983
e 10 688
e 10 115
e 10 770
e 10 138
e 10 510
e 10 719
e 12 661
e 12 92
e 12 535
e 13 598
e 13 830
e 13 972
e 13 300
e 13 109
e 14 813
e 14 725
e 14 870
e 14 335
e 14 309
e 14 513
e 14 253
e 14 904
e 15 487
e 15 208
e 15 691
e 16 228
e 16 456
e 16 112
e 16 525
e 16 723
e 16 964
e 17 964
e 17 36
e 17 73
e 17 789
e 17 425
e 17 177
e 18 465
e 18 308
e 18 770
e 18 385
e 18 954
e 18 417
e 19 673
e 19 69
e 19 332
e 19 61
e 19 324
e 19 467
e 20 261
e 20 832
e 20 979
e 20 66
e 20 643
e 20 928
e 21 667
e 21 778
e 21 219
e 24 263
e 24 819
e 24 651
e 26 323
e 26 561
e 26 764
e 26 272
e 30 426
e 30 338
e 30 117
e 31 154
e 31 867
e 31 423
e 32 595
e 32 915
e 32 476
e 32 381
e 32 365
e 32 286
e 33 737
e 33 515
e 33 39
e 33 645
e 33 992
e 33 361
e 33 171
e 33 549
e 34 335
e 34 765
e 34 665
e 34 332
e 34 958
e 34 378
e 35 774
e 35 268
e 35 827
e 36 807
e 36 984
e 38 840
e 38 403
e 38 605
e 38 293
e 39 717
e 39 316
e 39 344
e 39 929
e 39 837
e 39 271
e 39 567
e 40 421
e 40 825
e 40 835
e 40 79
e 40 515
e 40 834
e 42 47
e 42 208
e 42 239
e 43 682
e 43 109
e 43 537
e 46 52
e 46 316
e 46 720
e 47 845
e 47 197
e 47 268
e 47 426
e 49 180
e 49 52
e 49 787
e 49 123
e 50 973
e 50 577
e 50 770
e 51 772
e 51 727
e 51 198
e 51 974
e 52 534
e 52 759
e 52 805
e 52 997
e 52 597
e 53 830
e 53 510
e 53 523
e 53 899
e 54 370
e 54 908
e 55 975
e 55 476
e 55 625
e 56 315
e 56 481
e 56 364
e 56 958
e 56 718
e 59 446
e 59 129
e 59 918
e 60 822
e 60 530
e 60 591
e 60 234
e 60 508
e 60 193
e 61 284
e 61 114
e 61 647
e 61 333
e 62 900
e 62 531
e 62 324
e 62 426
e 63 439
e 63 903
e 63 691
e 63 219
e 64 469
e 64 966
e 64 220
e 64 454
e 65 266
e 65 271
e 65 812
e 66 331
e 66 626
e 66 735
e 67 858
e 67 264
e 67 683
e 67 68
e 68 360
e 68 397
e 68 770
e 68 113
e 68 289
e 69 793
e 69 421
e 71 886
e 71 623
e 71 688
e 71 147
e 71 787
e 72 349
e 72 457
e 72 117
e 72 616
e 72 319
e 73 150
e 73 873
e 73 930
e 73 212
e 74 434
e 74 623
e 74 798
e 75 335
e 75 144
e 75 201
e 75 828
e 76 705
e 76 267
e 76 776
e 76 364
e 76 183
e 77 570
e 77 484
e 77 435
e 77 650
e 77 351
e 79 805
e 79 182
e 79 758
e 80 941
e 80 370
e 80 713
e 80 231
e 83 980
e 83 778
e 83 291
e 85 136
e 85 876
e 85 99
e 85 232
e 85 294
e 87 341
e 87 749
e 87 187
e 90 228
e 90 550
e 90 811
e 90 126
e 91 556
e 91 368
e 91 209
e 91 942
e 91 168
e 91 359
e 91 558
e 92 653
e 92 142
e 92 216
e 92 456
e 92 794
e 92 938
e 93 527
e 93 459
e 93 280
e 93 157
e 93 934
e 93 906
e 94 605
e 94 816
e 94 507
e 94 490
e 94 660
e 94 446
e 95 572
e 95 601
e 95 568
e 95 778
e 97 720
e 97 332
e 97 654
e 97 201
e 97 837
e 99 510
e 99 472
e 99 600
e 99 402
e 99 582
e 99 597
e 100 956
e 100 251
e 100 392
e 100 235
e 100 625
e 101 430
e 101 182
e 101 757
e 101 479
e 101 151
e 102 778
e 102 643
e 102 821
e 102 851
e 104 628
e 104 762
e 104 161
e 104 337
e 105 686
e 105 655
e 105 181
e 105 330
e 105 833
e 105 873
e 106 484
e 106 138
e 106 132
e 106 509
e 106 447
e 107 278
e 107 295
e 107 383
e 107 597
e 107 708
e 107 481
e 109 263
e 109 614
e 110 244
e 110 402
e 110 682
e 111 772
e 111 762
e 111 678
e 111 244
e 112 838
e 112 781
e 112 134
e 113 772
e 113 713
e 113 431
e 113 176
e 113 688
e 114 292
e 114 230
e 114 980
e 114 444
e 114 920
e 114 903
e 115 883
e 115 606
e 115 256
e 115 787
e 115 923
e 115 728
e 115 934
e 115 947
e 115 131
e 116 849
e 116 547
e 116 144
e 117 527
e 117 230
e 117 812
e 117 770
e 117 757
e 117 529
e 120 523
e 120 151
e 120 973
e 120 201
e 120 788
e 120 145
e 121 801
e 121 156
e 121 1000
e 121 538
e 121 851
e 121 323
e 121 366
e 122 711
e 122 676
e 122 805
e 123 129
e 123 541
e 123 620
e 126 564
e 126 600
e 126 469
e 127 929
e 127 770
e 127 323
e 128 891
e 128 284
e 128 580
e 128 360
e 128 805
e 128 921
e 128 643
e 128 306
e 129 785
e 129 964
e 129 805
e 129 935
e 129 155
e 130 215
e 130 595
e 130 845
e 130 617
e 130 894
e 131 530
e 131 745
e 131 641
e 131 771
e 132 915
e 132 133
e 132 388
e 132 824
e 133 812
e 133 217
e 133 588
e 133 425
e 134 567
e 134 540
e 134 177
e 134 956
e 135 680
e 135 950
e 135 282
e 136 395
e 136 678
e 136 891
e 138 482
e 138 402
e 138 270
e 140 163
e 140 827
e 140 449
e 140 392
e 141 345
e 141 813
e 141 601
e 142 861
e 145 973
e 145 167
e 145 810
e 145 688
e 146 817
e 146 581
e 146 629
e 146 672
e 147 779
e 147 226
e 150 705
e 150 457
e 150 161
e 150 179
e 150 329
e 150 577
e 150 381
e 151 215
e 151 308
e 151 906
e 151 729
e 151 901
e 151 197
e 151 525
e 151 355
e 152 633
e 152 883
e 152 936
e 152 593
e 152 192
e 154 849
e 154 341
e 154 674
e 155 248
e 155 999
e 155 350
e 155 895
e 156 628
e 156 948
e 156 471
e 156 620
e 157 856
e 157 255
e 161 520
e 161 657
e 161 331
e 161 323
e 162 890
e 162 482
e 162 411
e 162 966
e 162 361
e 162 570
e 162 349
e 163 645
e 163 468
e 163 740
e 165 822
e 165 786
e 165 702
e 165 220
e 166 747
e 166 731
e 166 549
e 166 444
e 167 705
e 167 209
e 167 695
e 167 254
e 168 822
e 168 224
e 169 239
e 169 666
e 169 983
e 171 642
e 171 597
e 171 244
e 171 452
e 171 381
e 171 877
e 171 778
e 174 253
e 174 315
e 174 844
e 175 757
e 175 404
e 175 877
e 175 996
e 175 899
e 176 282
e 176 624
e 176 802
e 177 444
e 177 257
e 178 601
e 178 514
e 178 483
e 179 658
e 179 541
e 179 507
e 179 880
e 179 942
e 180 433
e 180 997
e 180 192
e 181 562
e 181 481
e 181 639
e 181 501
e 182 905
e 182 555
e 183 826
e 183 514
e 184 765
e 184 306
e 184 967
e 184 908
e 184 508
e 187 307
e 187 225
e 187 362
e 187 614
e 187 613
e 191 827
e 191 835
e 191 258
e 192 625
e 192 434
e 192 596
e 193 482
e 193 570
e 193 947
e 193 379
e 194 565
e 194 585
e 194 981
e 194 918
e 194 281
e 194 413
e 196 300
e 196 575
e 196 199
e 196 248
e 196 541
e 196 209
e 196 976
e 196 332
e 197 838
e 197 983
e 197 254
e 197 249
e 198 267
e 198 830
e 198 353
e 198 236
e 199 205
e 199 597
e 200 965
e 200 921
e 200 330
e 200 975
e 201 410
e 201 729
e 205 772
e 205 471
e 205 581
e 205 281
e 205 794
e 205 275
e 208 426
e 208 488
e 208 514
e 208 597
e 208 932
e 209 843
e 209 233
e 209 365
e 210 872
e 210 891
e 210 231
e 210 597
e 210 503
e 210 967
e 212 942
e 212 377
e 212 584
e 215 323
e 216 679
e 216 967
e 216 462
e 217 892
e 217 691
e 217 280
e 217 344
e 217 579
e 219 225
e 220 368
e 221 562
e 221 407
e 221 305
e 222 368
e 222 875
e 222 364
e 223 417
e 223 620
e 223 355
e 223 901
e 223 226
e 224 687
e 224 923
e 224 996
e 225 406
e 225 718
e 225 240
e 226 641
e 226 509
e 226 935
e 226 757
e 227 979
e 227 433
e 227 887
e 227 608
e 227 513
e 228 731
e 228 378
e 230 760
e 230 325
e 231 353
e 231 567
e 231 965
e 231 662
e 232 813
e 232 998
e 233 458
e 233 361
e 233 704
e 233 837
e 233 625
e 233 286
e 233 406
e 234 762
e 234 609
e 235 683
e 235 465
e 235 770
e 235 591
e 236 963
e 236 948
e 236 540
e 236 668
e 236 550
e 236 595
e 237 569
e 237 802
e 237 880
e 237 332
e 237 412
e 239 362
e 239 731
e 240 308
e 240 282
e 240 944
e 240 654
e 240 296
e 240 291
e 243 319
e 243 583
e 243 398
e 244 513
e 244 1000
e 245 540
e 245 669
e 245 273
e 248 857
e 248 319
e 248 529
e 248 642
e 248 598
e 248 684
e 248 783
e 249 294
e 249 522
e 249 626
e 249 414
e 251 657
e 251 303
e 251 462
e 251 440
e 253 595
e 254 316
e 254 611
e 254 776
e 255 345
e 255 833
e 255 728
e 256 286
e 256 356
e 256 935
e 257 608
e 257 656
e 258 820
e 258 630
e 258 476
e 260 323
e 260 613
e 260 808
e 261 744
e 261 643
e 261 757
e 261 732
e 262 890
e 262 345
e 262 705
e 263 369
e 263 993
e 263 870
e 263 820
e 263 988
e 264 583
e 264 323
e 264 826
e 264 346
e 264 494
e 266 433
e 266 628
e 266 858
e 266 616
e 267 600
e 267 385
e 267 774
e 267 411
e 267 828
e 267 781
e 267 479
e 267 377
e 268 794
e 268 950
e 269 990
e 269 859
e 269 384
e 269 287
e 269 978
e 269 785
e 269 993
e 269 582
e 270 299
e 270 620
e 270 960
e 270 764
e 271 571
e 271 343
e 271 877
e 272 651
e 272 597
e 273 942
e 273 472
e 274 626
e 274 343
e 274 501
e 274 727
e 274 455
e 275 862
e 275 723
e 276 852
e 276 668
e 276 627
e 277 366
e 277 998
e 277 368
e 278 972
e 278 473
e 278 611
e 278 350
e 278 531
e 280 401
e 280 561
e 280 794
e 281 602
e 281 643
e 281 948
e 281 720
e 282 288
e 282 959
e 283 585
e 283 838
e 283 499
e 284 420
e 284 563
e 284 959
e 284 644
e 284 963
e 285 713
e 285 530
e 285 641
e 285 401
e 286 999
e 286 771
e 287 297
e 287 837
e 287 323
e 287 709
e 288 370
e 288 820
e 289 437
e 289 404
e 289 490
e 291 464
e 292 504
e 292 718
e 293 543
e 293 498
e 293 611
e 293 333
e 293 913
e 294 303
e 294 950
e 294 890
e 294 661
e 295 816
e 295 299
e 295 567
e 295 728
e 295 837
e 296 729
e 296 595
e 297 975
e 297 782
e 299 483
e 299 963
e 300 883
e 300 967
e 300 567
e 303 596
e 303 978
e 305 628
e 305 359
e 306 542
e 306 646
e 306 438
e 307 655
e 307 458
e 307 519
e 307 732
e 308 767
e 308 407
e 308 600
e 309 584
e 309 415
e 310 431
e 310 895
e 310 632
e 311 438
e 311 826
e 311 945
e 311 671
e 313 938
e 313 478
e 313 934
e 313 410
e 313 574
e 314 527
e 314 489
e 314 449
e 315 465
e 315 788
e 315 504
e 316 884
e 319 996
e 319 590
e 319 340
e 319 546
e 320 340
e 320 792
e 320 619
e 321 665
e 321 980
e 321 797
e 322 377
e 322 727
e 322 331
e 323 711
e 323 890
e 323 342
e 323 489
e 324 857
e 324 471
e 325 506
e 325 411
e 325 667
e 325 871
e 328 648
e 328 626
e 328 337
e 328 946
e 329 866
e 329 335
e 329 364
e 329 973
e 329 475
e 330 763
e 330 945
e 330 957
e 331 411
e 331 608
e 331 557
e 331 720
e 331 967
e 331 660
e 332 372
e 333 498
e 333 639
e 333 972
e 334 669
e 334 494
e 334 723
e 337 904
e 337 820
e 337 658
e 337 633
e 337 601
e 338 966
e 338 764
e 338 852
e 340 687
e 342 616
e 342 833
e 343 632
e 343 802
e 343 526
e 343 735
e 343 891
e 343 380
e 343 745
e 343 701
e 344 789
e 344 580
e 344 550
e 345 887
e 345 626
e 345 394
e 346 642
e 346 366
e 346 441
e 346 946
e 346 456
e 349 825
e 349 482
e 349 870
e 349 501
e 350 974
e 350 450
e 351 798
e 351 835
e 351 765
e 352 558
e 352 613
e 352 975
e 352 927
e 352 627
e 352 372
e 353 838
e 353 593
e 353 580
e 354 444
e 354 872
e 354 985
e 354 961
e 355 999
e 355 861
e 355 801
e 356 572
e 356 759
e 356 723
e 356 699
e 359 501
e 359 630
e 360 757
e 360 440
e 360 988
e 361 985
e 361 727
e 362 393
e 362 879
e 362 608
e 362 720
e 364 368
e 365 760
e 365 770
e 366 768
e 366 407
e 366 837
e 367 504
e 367 844
e 367 882
e 367 833
e 368 917
e 368 941
e 368 478
e 369 465
e 369 974
e 370 819
e 370 884
e 372 792
e 372 549
e 374 853
e 374 997
e 374 613
e 376 513
e 376 998
e 376 875
e 376 976
e 376 525
e 376 566
e 376 673
e 376 871
e 377 889
e 378 882
e 378 753
e 379 913
e 379 895
e 379 821
e 379 412
e 380 727
e 380 481
e 380 817
e 381 760
e 381 743
e 382 644
e 382 727
e 382 749
e 382 981
e 382 673
e 383 656
e 383 878
e 384 890
e 384 459
e 385 520
e 385 536
e 388 723
e 388 516
e 390 543
e 390 600
e 390 843
e 390 838
e 392 614
e 392 757
e 393 716
e 393 555
e 393 961
e 393 793
e 394 936
e 394 788
e 395 990
e 395 881
e 395 621
e 395 698
e 395 740
e 396 633
e 396 845
e 396 584
e 397 488
e 397 504
e 397 453
e 397 700
e 398 453
e 398 840
e 398 880
e 401 671
e 401 741
e 402 434
e 403 741
e 403 886
e 403 648
e 404 704
e 404 405
e 404 918
e 405 852
e 405 701
e 406 514
e 406 988
e 406 967
e 407 434
e 407 717
e 407 487
e 407 698
e 407 581
e 410 837
e 410 571
e 410 499
e 410 889
e 410 797
e 411 843
e 412 749
e 412 902
e 412 843
e 412 534
e 412 435
e 413 565
e 413 482
e 414 764
e 414 674
e 414 417
e 415 730
e 415 797
e 417 526
e 417 426
e 420 654
e 420 454
e 420 456
e 420 476
e 421 616
e 421 975
e 421 840
e 423 725
e 423 511
e 423 701
e 423 892
e 423 452
e 424 788
e 424 434
e 424 789
e 425 992
e 429 806
e 429 576
e 429 948
e 430 770
e 430 474
e 431 992
e 433 615
e 433 629
e 433 830
e 433 761
e 434 937
e 435 612
e 435 743
e 435 849
e 435 458
e 435 439
e 437 723
e 437 950
e 437 747
e 437 748
e 438 503
e 438 872
e 438 797
e 439 886
e 439 973
e 439 688
e 439 563
e 439 651
e 440 775
e 440 682
e 441 653
e 441 699
e 441 728
e 442 597
e 442 782
e 442 668
e 443 799
e 443 564
e 443 857
e 444 847
e 444 775
e 444 558
e 446 941
e 446 771
e 447 525
e 447 907
e 447 985
e 448 972
e 448 946
e 448 770
e 449 464
e 449 827
e 449 525
e 450 778
e 450 835
e 450 863
e 452 476
e 453 834
e 453 454
e 453 571
e 454 641
e 455 747
e 455 788
e 456 789
e 457 880
e 457 794
e 457 616
e 458 527
e 458 981
e 459 673
e 462 682
e 462 619
e 464 903
e 464 690
e 465 475
e 465 643
e 465 871
e 467 801
e 467 779
e 468 947
e 468 616
e 468 590
e 468 763
e 468 520
e 469 561
e 469 930
e 469 598
e 471 843
e 471 758
e 471 615
e 472 907
e 473 997
e 473 920
e 474 483
e 474 719
e 475 900
e 475 565
e 475 523
e 476 744
e 476 921
e 476 579
e 476 668
e 478 705
e 478 609
e 478 655
e 478 807
e 481 702
e 482 624
e 482 595
e 483 612
e 484 880
e 484 704
e 487 840
e 488 881
e 489 574
e 489 840
e 489 873
e 489 567
e 490 544
e 490 723
e 490 797
e 493 867
e 493 508
e 494 668
e 497 544
e 497 740
e 497 753
e 498 533
e 499 502
e 499 922
e 499 572
e 501 833
e 501 574
e 501 879
e 502 561
e 502 630
e 502 612
e 503 637
e 503 579
e 504 678
e 504 963
e 504 541
e 504 668
e 506 682
e 506 709
e 507 523
e 507 872
e 509 876
e 509 719
e 509 862
e 510 805
e 511 744
e 511 808
e 513 924
e 513 705
e 514 619
e 514 932
e 514 791
e 515 759
e 516 561
e 516 938
e 516 757
e 517 689
e 517 642
e 517 617
e 517 952
e 518 730
e 518 657
e 518 783
e 519 617
e 519 1000
e 519 614
e 522 932
e 522 782
e 523 852
e 523 776
e 523 954
e 525 668
e 525 698
e 526 628
e 526 811
e 526 808
e 526 863
e 529 655
e 529 580
e 529 651
e 531 728
e 533 650
e 533 629
e 533 830
e 534 573
e 535 990
e 535 578
e 536 947
e 536 993
e 536 587
e 537 853
e 537 988
e 538 977
e 538 877
e 540 894
e 540 578
e 541 606
e 541 687
e 542 545
e 542 784
e 542 761
e 543 852
e 543 735
e 543 657
e 543 834
e 544 744
e 544 983
e 544 727
e 545 924
e 545 973
e 545 558
e 546 928
e 547 633
e 547 592
e 547 976
e 547 983
e 549 626
e 549 767
e 549 582
e 549 997
e 549 731
e 553 973
e 553 837
e 553 764
e 555 602
e 555 568
e 556 959
e 556 792
e 556 628
e 556 839
e 557 774
e 557 637
e 558 718
e 561 707
e 561 624
e 561 587
e 561 900
e 562 666
e 562 608
e 562 965
e 563 614
e 564 592
e 564 921
e 565 672
e 565 856
e 565 784
e 565 707
e 566 707
e 566 832
e 567 935
e 567 679
e 568 787
e 568 805
e 569 883
e 569 952
e 570 678
e 570 983
e 571 655
e 571 732
e 571 838
e 572 704
e 573 932
e 573 972
e 573 687
e 574 965
e 575 883
e 575 905
e 575 728
e 576 988
e 576 857
e 577 937
e 577 655
e 577 581
e 578 785
e 578 719
e 579 616
e 579 698
e 580 748
e 580 810
e 580 908
e 581 595
e 581 996
e 581 862
e 582 615
e 582 981
e 583 786
e 583 728
e 584 885
e 584 609
e 584 628
e 585 627
e 585 830
e 587 720
e 588 948
e 588 621
e 588 647
e 588 875
e 590 732
e 591 806
e 592 616
e 592 821
e 593 889
e 593 753
e 593 996
e 595 820
e 595 602
e 595 885
e 595 922
e 596 979
e 596 720
e 596 920
e 596 775
e 598 980
e 598 713
e 599 937
e 599 866
e 599 839
e 601 620
e 602 630
e 602 719
e 602 784
e 603 653
e 603 738
e 603 989
e 603 671
e 605 827
e 605 840
e 605 885
e 606 679
e 611 730
e 611 888
e 612 961
e 612 631
e 614 827
e 614 937
e 614 859
e 615 701
e 615 745
e 616 997
e 616 824
e 617 927
e 617 957
e 619 904
e 619 641
e 621 899
e 623 834
e 624 981
e 625 889
e 625 905
e 625 932
e 626 866
e 627 993
e 627 851
e 628 686
e 629 948
e 630 729
e 631 674
e 631 958
e 632 683
e 632 966
e 633 637
e 637 955
e 639 975
e 639 902
e 641 878
e 641 941
e 643 863
e 643 845
e 644 852
e 645 783
e 646 827
e 646 662
e 647 654
e 647 748
e 648 695
e 650 885
e 650 957
e 651 857
e 653 959
e 655 875
e 655 785
e 656 811
e 656 950
e 656 882
e 656 870
e 656 924
e 658 745
e 658 669
e 660 955
e 661 791
e 662 770
e 665 966
e 665 899
e 666 813
e 667 984
e 668 934
e 668 902
e 669 983
e 669 950
e 671 844
e 671 867
e 672 731
e 672 699
e 673 960
e 673 945
e 673 738
e 673 747
e 674 872
e 674 888
e 676 977
e 676 837
e 678 882
e 679 963
e 679 821
e 680 884
e 680 960
e 680 957
e 680 774
e 682 708
e 683 704
e 683 857
e 684 716
e 684 858
e 686 793
e 686 873
e 686 815
e 689 707
e 689 705
e 690 776
e 690 707
e 691 826
e 691 738
e 691 744
e 691 770
e 695 801
e 695 812
e 698 992
e 698 792
e 699 899
e 699 731
e 700 821
e 700 978
e 700 965
e 701 711
e 701 749
e 701 936
e 701 849
e 701 908
e 702 862
e 704 920
e 704 915
e 705 825
e 707 853
e 708 837
e 708 859
e 709 934
e 713 917
e 713 956
e 714 977
e 714 947
e 714 768
e 716 979
e 717 776
e 717 930
e 718 821
e 720 847
e 720 937
e 722 983
e 722 805
e 722 743
e 723 872
e 723 799
e 725 866
e 725 758
e 725 922
e 727 834
e 727 844
e 728 965
e 730 812
e 730 797
e 730 913
e 732 794
e 732 922
e 732 793
e 732 990
e 735 845
e 735 982
e 737 839
e 737 847
e 738 903
e 738 891
e 740 889
e 741 788
e 742 989
e 742 891
e 742 900
e 743 958
e 745 878
e 748 819
e 748 786
e 748 935
e 748 817
e 748 975
e 753 847
e 757 992
e 757 791
e 758 929
e 758 815
e 759 975
e 759 768
e 760 792
e 761 801
e 762 785
e 762 989
e 762 915
e 763 981
e 763 772
e 763 997
e 764 920
e 767 815
e 767 957
e 767 938
e 768 827
e 772 923
e 779 952
e 781 816
e 781 883
e 781 978
e 783 921
e 783 826
e 784 845
e 784 895
e 787 981
e 788 944
e 788 920
e 789 870
e 789 965
e 793 807
e 793 921
e 793 824
e 794 845
e 794 871
e 797 927
e 798 837
e 799 840
e 801 906
e 806 807
e 806 964
e 807 976
e 807 982
e 810 954
e 811 816
e 813 862
e 813 902
e 816 904
e 819 863
e 819 944
e 824 982
e 826 844
e 828 853
e 828 950
e 830 920
e 832 975
e 833 983
e 834 997
e 835 894
e 835 947
e 835 942
e 837 885
e 838 944
e 838 927
e 838 879
e 839 930
e 839 870
e 844 890
e 845 966
e 847 976
e 853 937
e 853 908
e 856 958
e 859 979
e 859 905
e 873 903
e 876 955
e 878 976
e 880 993
e 881 955
e 882 965
e 882 989
e 883 965
e 887 894
e 888 902
e 890 900
e 892 922
e 892 901
e 895 950
e 899 975
e 907 959
e 907 989
e 908 923
e 913 956
e 913 985
e 915 993
e 915 945
e 917 963
e 918 967
e 918 960
e 921 1000
e 928 980
e 930 965
e 935 984
e 936 998
e 946 955
e 950 976
